Route 1: 0 15 70 68 27 71 77 73 44 16 2 22 98 0
Route 2: 0 5 36 41 83 40 94 96 60 48 43 87 0
Route 3: 0 49 54 47 1 24 25 86 58 91 53 34 95 0
Route 4: 0 18 55 89 52 63 57 97 69 21 31 88 13 0
Route 5: 0 14 59 45 7 74 39 37 75 46 0
Route 6: 0 92 11 20 38 61 23 19 0
Route 7: 0 17 56 62 85 93 67 0
Route 8: 0 26 10 90 12 6 30 72 0
Route 9: 0 76 35 82 33 29 64 84 66 0
Route 10: 0 65 32 50 3 9 79 28 4 0
Route 11: 0 81 100 78 99 42 51 80 8 0
